37652 41042 
36998 41184 
38660 40563 
37417 41054 
36763 41196 
38416 40601 
37690 41011 
38058 40850 
38444 40591 
35668 41483 
36614 41273 
35878 41375 
35547 41515 
36493 41305 
35757 41407 
39226 40079 
34762 41569 
36258 41317 
39405 39951 
39658 39796 
39451 39934 
